5,1,2,1,3,4,1,5,1,6,1,7,5,7;7,1,3,2,8,2,3,3,8,5,4,3,4,4,8,7,2,8;8,1,8,3,1,3,6,4,2,6,2,7,4,7,4,8;1,1,1,2,8,4,5,4,1,4,5,5,5,6,3,8,5,8;4,1,7,2,7,3,2,2,5,3,2,4,2,5,3,7,1,8;4,2,7,4,7,5,7,6,4,5,4,6,6,8;6,1,6,2,6,3,3,5,6,5,6,6,6,7,8,8;3,1,5,2,2,3,8,6,3,6,7,7,7,8;
